899396
14 15 36816
15 2 71701
2 13 30026
13 16 42391
16 8 102410
8 5 47658
5 35 22446
35 6 11794
6 28 22890
28 37 745
37 12 18675
12 27 6411
27 30 12751
30 29 10287
29 36 941
36 38 6534
38 24 4093
24 22 11530
22 33 31609
33 11 39715
11 32 3967
32 25 15458
25 19 24941
19 31 24202
31 4 3290
4 23 63665
23 21 45980
21 3 23621
3 18 26533
18 39 13572
39 17 18404
17 26 12606
26 1 15288
1 20 11546
20 0 6578
0 9 6947
9 34 6355
34 10 5412
10 7 17581
7 14 26227
